c colouring generated by benchmark framework
p edge 138 493
v 1 2
v 2 6
v 3 8
v 4 9
v 5 7
v 6 9
v 7 9
v 8 3
v 9 5
v 10 3
v 11 3
v 12 5
v 13 7
v 14 1
v 15 1
v 16 0
v 17 1
v 18 8
v 19 0
v 20 2
v 21 0
v 22 3
v 23 7
v 24 1
v 25 1
v 26 0
v 27 4
v 28 2
v 29 3
v 30 1
v 31 6
v 32 2
v 33 3
v 34 1
v 35 3
v 36 5
v 37 3
v 38 5
v 39 0
v 40 5
v 41 3
v 42 8
v 43 2
v 44 1
v 45 0
v 46 3
v 47 3
v 48 8
v 49 6
v 50 4
v 51 1
v 52 0
v 53 2
v 54 4
v 55 0
v 56 7
v 57 6
v 58 6
v 59 2
v 60 3
v 61 7
v 62 0
v 63 10
v 64 2
v 65 4
v 66 2
v 67 1
v 68 9
v 69 4
v 70 1
v 71 3
v 72 0
v 73 3
v 74 6
v 75 0
v 76 0
v 77 7
v 78 5
v 79 1
v 80 9
v 81 7
v 82 8
v 83 3
v 84 1
v 85 3
v 86 7
v 87 2
v 88 5
v 89 2
v 90 4
v 91 10
v 92 7
v 93 1
v 94 0
v 95 9
v 96 10
v 97 0
v 98 0
v 99 3
v 100 6
v 101 9
v 102 10
v 103 0
v 104 6
v 105 0
v 106 1
v 107 9
v 108 7
v 109 7
v 110 1
v 111 3
v 112 3
v 113 1
v 114 9
v 115 8
v 116 2
v 117 2
v 118 0
v 119 7
v 120 6
v 121 0
v 122 7
v 123 3
v 124 2
v 125 3
v 126 4
v 127 2
v 128 1
v 129 4
v 130 7
v 131 3
v 132 2
v 133 9
v 134 7
v 135 0
v 136 4
v 137 0
v 138 1
